
Gurobi 6.5.2 (linux64) logging started Wed Aug 31 10:35:31 2016

Optimize a model with 201 rows, 1585 columns and 3467 nonzeros
Coefficient statistics:
  Matrix range    [1e+00, 2e+00]
  Objective range [1e+00, 1e+02]
  Bounds range    [1e+00, 1e+00]
  RHS range       [1e+00, 1e+00]
Found heuristic solution: objective 2709
Presolve removed 53 rows and 8 columns
Presolve time: 0.01s
Presolved: 148 rows, 1577 columns, 3238 nonzeros
Variable types: 0 continuous, 1577 integer (1577 binary)

Root relaxation: objective 9.215000e+02, 134 iterations, 0.00 seconds

    Nodes    |    Current Node    |     Objective Bounds      |     Work
 Expl Unexpl |  Obj  Depth IntInf | Incumbent    BestBd   Gap | It/Node Time

     0     0  921.50000    0   42 2709.00000  921.50000  66.0%     -    0s
H    0     0                    1381.0000000  921.50000  33.3%     -    0s
H    0     0                    1208.0000000  921.50000  23.7%     -    0s
H    0     0                    1201.0000000  921.50000  23.3%     -    0s
     0     0  988.00000    0   53 1201.00000  988.00000  17.7%     -    0s
H    0     0                    1177.0000000  988.00000  16.1%     -    0s
H    0     0                    1060.0000000  988.00000  6.79%     -    0s
     0     0 1011.00000    0   89 1060.00000 1011.00000  4.62%     -    0s
     0     0 1013.08333    0   92 1060.00000 1013.08333  4.43%     -    0s
     0     0 1023.83889    0   93 1060.00000 1023.83889  3.41%     -    0s
     0     0 1023.83889    0   42 1060.00000 1023.83889  3.41%     -    0s
H    0     0                    1059.0000000 1023.83889  3.32%     -    0s
     0     0 1023.83889    0   62 1059.00000 1023.83889  3.32%     -    0s
     0     0 1023.83889    0   81 1059.00000 1023.83889  3.32%     -    0s
H    0     0                    1053.0000000 1023.83889  2.77%     -    0s
     0     0 1033.15502    0   78 1053.00000 1033.15502  1.88%     -    0s
     0     0 1033.15502    0   42 1053.00000 1033.15502  1.88%     -    0s
     0     0 1033.15502    0   81 1053.00000 1033.15502  1.88%     -    0s
     0     0 1033.15502    0  118 1053.00000 1033.15502  1.88%     -    0s
     0     0 1036.45909    0   54 1053.00000 1036.45909  1.57%     -    0s
     0     0 1036.45909    0   40 1053.00000 1036.45909  1.57%     -    0s
     0     0 1036.45909    0   61 1053.00000 1036.45909  1.57%     -    0s
     0     0 1036.45909    0   93 1053.00000 1036.45909  1.57%     -    0s
     0     0 1036.69118    0   82 1053.00000 1036.69118  1.55%     -    0s
H    0     0                    1051.0000000 1036.69118  1.36%     -    0s
     0     0 1037.15909    0   63 1051.00000 1037.15909  1.32%     -    0s
     0     0 1038.02899    0  107 1051.00000 1038.02899  1.23%     -    0s
     0     0 1038.02899    0   37 1051.00000 1038.02899  1.23%     -    0s
     0     0 1038.02899    0   56 1051.00000 1038.02899  1.23%     -    0s
     0     0 1038.02899    0   87 1051.00000 1038.02899  1.23%     -    0s
     0     0 1038.02899    0   45 1051.00000 1038.02899  1.23%     -    0s
     0     0 1038.07729    0   92 1051.00000 1038.07729  1.23%     -    0s
     0     0 1038.39474    0   81 1051.00000 1038.39474  1.20%     -    0s
     0     0 1038.40323    0   77 1051.00000 1038.40323  1.20%     -    0s
     0     0 1038.40323    0   77 1051.00000 1038.40323  1.20%     -    0s
     0     2 1038.40323    0   77 1051.00000 1038.40323  1.20%     -    0s
H   41     8                    1049.0000000 1041.06989  0.76%   3.8    0s
*   53    11              11    1048.0000000 1041.06989  0.66%   4.0    0s

Cutting planes:
  Gomory: 35
  Cover: 104
  MIR: 9
  Zero half: 5

Explored 246 nodes (2521 simplex iterations) in 0.41 seconds
Thread count was 8 (of 8 available processors)

Optimal solution found (tolerance 1.00e-04)
Best objective 1.048000000000e+03, best bound 1.048000000000e+03, gap 0.0%
